100 152108
78 67 39 95 22 27 17 92 20 33 85 69 77 12 1 62 94 51 53 58 44 60 98 96 56 34 100 48 54 28 57 29 93 64 70 91 47 84 18 19 66 7 99 15 37 24 55 83 25 10 97 2 6 35 41 8 11 23 52 50 61 68 71 79 88 46 76 30 87 59 80 43 38 74 13 26 9 89 75 42 21 16 73 63 81 4 36 49 14 40 32 3 86 90 72 31 45 5 82 65 
